words_train/words_486_SAT.qaiger
aag 44 16 0 1 28
16
30
18
2
6
32
4
12
10
20
14
22
8
28
26
24
88
34 29 12
36 23 6
38 37 35
40 31 14
42 41 16
44 27 10
46 25 8
48 47 45
50 48 42
52 21 4
54 53 50
56 54 38
58 21 5
60 25 9
62 29 13
64 63 61
66 23 7
68 31 15
70 69 67
72 27 11
74 73 17
76 74 70
78 76 64
80 78 59
82 81 57
84 82 33
86 83 32
88 87 85
i0 1 x[7]
i1 2 z[6]
i2 2 z[0]
i3 1 x[0]
i4 1 x[2]
i5 2 z[7]
i6 1 x[1]
i7 1 x[5]
i8 1 x[4]
i9 2 z[1]
i10 1 x[6]
i11 2 z[2]
i12 1 x[3]
i13 2 z[5]
i14 2 z[4]
i15 2 z[3]
o0 bv[0]
c
simplified
  >
    invert
      1
    or
      xor
        1 x
        >> 7
          1 x
      2 z
