words_train/words_486_SAT.qaiger.qdimacs
p cnf 44 85
a 1 2 3 4 5 6 7 8 0
e 9 10 11 12 13 14 15 16 17 18 19 20 21 22 23 24 25 26 27 28 29 30 31 32 33 34 35 36 37 38 39 40 41 42 43 44 0
14 -6 17 0
-14 -17 0
6 -17 0
11 -3 18 0
-11 -18 0
3 -18 0
18 17 19 0
-18 -19 0
-17 -19 0
15 -7 20 0
-15 -20 0
7 -20 0
20 -8 21 0
-20 -21 0
8 -21 0
13 -5 22 0
-13 -22 0
5 -22 0
12 -4 23 0
-12 -23 0
4 -23 0
23 22 24 0
-23 -24 0
-22 -24 0
-24 -21 25 0
24 -25 0
21 -25 0
10 -2 26 0
-10 -26 0
2 -26 0
26 -25 27 0
-26 -27 0
25 -27 0
-27 -19 28 0
27 -28 0
19 -28 0
10 2 29 0
-10 -29 0
-2 -29 0
12 4 30 0
-12 -30 0
-4 -30 0
14 6 31 0
-14 -31 0
-6 -31 0
31 30 32 0
-31 -32 0
-30 -32 0
11 3 33 0
-11 -33 0
-3 -33 0
15 7 34 0
-15 -34 0
-7 -34 0
34 33 35 0
-34 -35 0
-33 -35 0
13 5 36 0
-13 -36 0
-5 -36 0
36 8 37 0
-36 -37 0
-8 -37 0
-37 -35 38 0
37 -38 0
35 -38 0
-38 -32 39 0
38 -39 0
32 -39 0
-39 29 40 0
39 -40 0
-29 -40 0
40 28 41 0
-40 -41 0
-28 -41 0
-41 16 42 0
41 -42 0
-16 -42 0
41 -16 43 0
-41 -43 0
16 -43 0
43 42 44 0
-43 -44 0
-42 -44 0
44 0
